row=8;
Board=[|1,8,5,9,4,0,-1,-1,7,6|-1,6,-1,3,8,-1,4,1,0,-1|9,3,8,-1,-1,-1,7,-1,4,5|-1,-1,-1,7,3,9,-1,-1,-1,-1|2,6,8,5,-1,-1,3,4,9,1|-1,-1,1,6,-1,2,8,-1,7,-1|-1,3,-1,-1,4,5,1,6,-1,2|-1,-1,-1,-1,-1,3,-1,9,-1,0|];
bottom=[43,34,48,35,30,36,37,26,42,29]